Version identifier: 22.1.0.0 | 2022-03-09 | 1a383f8ce
CPXPARAM_Threads                                 1
CPXPARAM_MIP_Strategy_VariableSelect             3
CPXPARAM_TimeLimit                               599.99997162399995
1 of 1 MIP starts provided solutions.
MIP start 'm1' defined initial solution with objective 3.0000.
Tried aggregator 2 times.
MIP Presolve eliminated 40 rows and 1 columns.
MIP Presolve added 36 rows and 9 columns.
MIP Presolve modified 46 coefficients.
Aggregator did 9 substitutions.
Reduced MIP has 2413 rows, 10400 columns, and 189090 nonzeros.
Reduced MIP has 10400 binaries, 0 generals, 0 SOSs, and 0 indicators.
Presolve time = 0.27 sec. (369.50 ticks)
Probing time = 0.03 sec. (27.23 ticks)
Tried aggregator 1 time.
Detecting symmetries...
MIP Presolve modified 13 coefficients.
Reduced MIP has 2413 rows, 10400 columns, and 189320 nonzeros.
Reduced MIP has 10400 binaries, 0 generals, 0 SOSs, and 0 indicators.
Presolve time = 0.19 sec. (294.42 ticks)
Probing time = 0.03 sec. (27.26 ticks)
Clique table members: 1597.
MIP emphasis: balance optimality and feasibility.
MIP search method: dynamic search.
Parallel mode: none, using 1 thread.
Root relaxation solution time = 2.14 sec. (2759.14 ticks)

        Nodes                                         Cuts/
   Node  Left     Objective  IInf  Best Integer    Best Bound    ItCnt     Gap

*     0+    0                            3.0000    80200.0000              --- 
      0     0      400.0000  1548        3.0000      400.0000     6165     --- 
      0     0      400.0000   391        3.0000       Cuts: 5     8406     --- 
*     0+    0                          101.0000      400.0000           296.04%
      0     0      400.0000   391      101.0000       Cuts: 5     9410  296.04%
      0     0      400.0000   262      101.0000   ZeroHalf: 3    11598  296.04%
*     0+    0                          396.0000      400.0000             1.01%
      0     0        cutoff            396.0000      400.0000    11598    1.01%
Detecting symmetries...
      0     2      400.0000   143      396.0000      400.0000    11598    1.01%
Elapsed time = 72.19 sec. (83228.40 ticks, tree = 0.01 MB, solutions = 3)
      1     3      400.0000   419      396.0000      400.0000    21187    1.01%
      2     4      400.0000   159      396.0000      400.0000    24354    1.01%
      3     5      400.0000   172      396.0000      400.0000    28510    1.01%
      4     6      400.0000   159      396.0000      400.0000    29792    1.01%
      5     7      400.0000   301      396.0000      400.0000    35713    1.01%
      6     8      399.9999   354      396.0000      400.0000    39170    1.01%
      7     9      400.0000   370      396.0000      400.0000    42533    1.01%
      8    10      400.0000   321      396.0000      400.0000    44420    1.01%
      9    11      400.0000   288      396.0000      400.0000    47603    1.01%
     11    13      400.0000   424      396.0000      400.0000    51067    1.01%
Elapsed time = 90.89 sec. (103875.11 ticks, tree = 0.17 MB, solutions = 3)
     12    14      400.0000   257      396.0000      400.0000    53770    1.01%
     13    15      400.0000   491      396.0000      400.0000    63944    1.01%
     15    17      400.0000   558      396.0000      400.0000    69923    1.01%
     17    19      400.0000   301      396.0000      400.0000    69981    1.01%
     18    20      400.0000   375      396.0000      400.0000    73468    1.01%
     20    22      400.0000   385      396.0000      400.0000    77677    1.01%
     21    23      400.0000   291      396.0000      400.0000    80600    1.01%
     23    25      400.0000   275      396.0000      400.0000    82354    1.01%
     24    26      400.0000   486      396.0000      400.0000    86110    1.01%
     26    28      400.0000   308      396.0000      400.0000    96889    1.01%
Elapsed time = 114.38 sec. (128562.86 ticks, tree = 0.45 MB, solutions = 3)
     28    30      400.0000   303      396.0000      400.0000   101094    1.01%
     30    32      400.0000   307      396.0000      400.0000   106101    1.01%
     32    34      400.0000   317      396.0000      400.0000   112128    1.01%
     34    36      400.0000   274      396.0000      400.0000   116215    1.01%
     36    38      400.0000   313      396.0000      400.0000   120037    1.01%
     38    40      400.0000   258      396.0000      400.0000   124298    1.01%
     40    42      400.0000   398      396.0000      400.0000   127648    1.01%
     42    44      400.0000   259      396.0000      400.0000   129799    1.01%
     44    46      400.0000   308      396.0000      400.0000   132214    1.01%
     47    49      400.0000   272      396.0000      400.0000   135096    1.01%
Elapsed time = 147.49 sec. (163015.12 ticks, tree = 0.77 MB, solutions = 3)
     49    51      400.0000   289      396.0000      400.0000   137990    1.01%
     50    52      400.0000   309      396.0000      400.0000   138117    1.01%
     51    53      400.0000   556      396.0000      400.0000   141726    1.01%
     53    55      400.0000   445      396.0000      400.0000   147312    1.01%
     55    57      400.0000   281      396.0000      400.0000   151512    1.01%
     57    59      400.0000   417      396.0000      400.0000   155092    1.01%
     59    61      400.0000   508      396.0000      400.0000   167115    1.01%
     61    63      400.0000   422      396.0000      400.0000   172103    1.01%
     62    64      400.0000   390      396.0000      400.0000   179512    1.01%
     63    65      400.0000   527      396.0000      400.0000   182211    1.01%
Elapsed time = 172.29 sec. (188970.88 ticks, tree = 1.06 MB, solutions = 3)
     65    67      400.0000   490      396.0000      400.0000   184196    1.01%
     67    69      400.0000   370      396.0000      400.0000   186652    1.01%
     68    70      400.0000   469      396.0000      400.0000   191030    1.01%
     69    71      400.0000   574      396.0000      400.0000   192130    1.01%
     70    72      400.0000   461      396.0000      400.0000   194406    1.01%
     71    73      400.0000   453      396.0000      400.0000   196274    1.01%
     72    74      400.0000   474      396.0000      400.0000   199242    1.01%
     74    76      400.0000   424      396.0000      400.0000   202509    1.01%
     75    77      400.0000   367      396.0000      400.0000   206837    1.01%
     76    78      400.0000   320      396.0000      400.0000   210054    1.01%
Elapsed time = 189.28 sec. (206744.25 ticks, tree = 1.38 MB, solutions = 3)
     77    79      400.0000   455      396.0000      400.0000   214300    1.01%
     79    81      400.0000  1335      396.0000      400.0000   218738    1.01%
     81    83      400.0000   458      396.0000      400.0000   220548    1.01%
     83    85      400.0000   438      396.0000      400.0000   222376    1.01%
     85    87      400.0000   434      396.0000      400.0000   224415    1.01%
     87    89      400.0000   377      396.0000      400.0000   229456    1.01%
     88    90      400.0000   259      396.0000      400.0000   234983    1.01%
     90    92      400.0000   218      396.0000      400.0000   239629    1.01%
     92    94      400.0000   160      396.0000      400.0000   241972    1.01%
     95    97      400.0000   142      396.0000      400.0000   244670    1.01%
Elapsed time = 203.07 sec. (220835.60 ticks, tree = 1.81 MB, solutions = 3)
     96    98      400.0000   250      396.0000      400.0000   256659    1.01%
     97    99      400.0000   198      396.0000      400.0000   263364    1.01%
     98   100      400.0000   307      396.0000      400.0000   269391    1.01%
     99   101      400.0000   417      396.0000      400.0000   280548    1.01%
    100   102      400.0000   309      396.0000      400.0000   280753    1.01%
    101   102      399.0588   514      396.0000      400.0000   288005    1.01%
    102   103      400.0000   335      396.0000      400.0000   289876    1.01%
    103   104      400.0000   282      396.0000      400.0000   292836    1.01%
    105   106      400.0000   249      396.0000      400.0000   297731    1.01%
    106   106      399.2692   487      396.0000      400.0000   303010    1.01%
Elapsed time = 224.95 sec. (243520.49 ticks, tree = 2.02 MB, solutions = 3)
    108   108      400.0000   219      396.0000      400.0000   308195    1.01%
    109   108      399.2692   473      396.0000      400.0000   314113    1.01%
    110   109      400.0000   236      396.0000      400.0000   317330    1.01%
    111   109      399.1154   493      396.0000      400.0000   322296    1.01%
    112   110      400.0000   224      396.0000      400.0000   324995    1.01%
    113   110      399.1154   401      396.0000      400.0000   330958    1.01%
    115   111      399.2308   416      396.0000      400.0000   337564    1.01%
    117   112      399.0000   465      396.0000      400.0000   349010    1.01%
    119   114      400.0000   195      396.0000      400.0000   351274    1.01%
    120   115      400.0000   188      396.0000      400.0000   351832    1.01%
Elapsed time = 246.95 sec. (266044.78 ticks, tree = 2.17 MB, solutions = 3)
    122   116      399.1923   557      396.0000      400.0000   359353    1.01%
    125   118      399.1731   417      396.0000      400.0000   364863    1.01%
    127   119      399.0000   488      396.0000      400.0000   370833    1.01%
    130   122      400.0000   163      396.0000      400.0000   379970    1.01%
    131   123      400.0000   178      396.0000      400.0000   382375    1.01%
    132   123      399.0962   562      396.0000      400.0000   390656    1.01%
    133   124      400.0000   187      396.0000      400.0000   397546    1.01%
    134   124      399.2692   478      396.0000      400.0000   409565    1.01%
    136   125      399.2308   363      396.0000      400.0000   419335    1.01%
    138   127      400.0000   198      396.0000      400.0000   424388    1.01%
Elapsed time = 271.19 sec. (291093.41 ticks, tree = 2.40 MB, solutions = 3)
    139   128      400.0000   160      396.0000      400.0000   431398    1.01%
    140   129      400.0000   150      396.0000      400.0000   432658    1.01%
    141   130      400.0000   152      396.0000      400.0000   434531    1.01%
    142   131      400.0000   129      396.0000      400.0000   442584    1.01%
    143   132      400.0000   124      396.0000      400.0000   450283    1.01%
    144   132      399.0755   624      396.0000      400.0000   465163    1.01%
    146   133      399.2308   425      396.0000      400.0000   473039    1.01%
    148   134      399.0385   489      396.0000      400.0000   481299    1.01%
    150   135      399.0000   378      396.0000      400.0000   491663    1.01%
    152   136      399.2885   577      396.0000      400.0000   503807    1.01%
Elapsed time = 300.65 sec. (321409.46 ticks, tree = 2.48 MB, solutions = 3)
    157   141      400.0000   214      396.0000      400.0000   512811    1.01%
    160   143      399.0000   233      396.0000      400.0000   525740    1.01%
    162   144      399.0962   497      396.0000      400.0000   537703    1.01%
    164   145      399.1731   451      396.0000      400.0000   552040    1.01%
    167   148      400.0000   123      396.0000      400.0000   560315    1.01%
    169   149      399.0385   464      396.0000      400.0000   572986    1.01%
    171   150      399.2692   470      396.0000      400.0000   585732    1.01%
    173   151      399.0962   494      396.0000      400.0000   600165    1.01%
    175   153      400.0000    96      396.0000      400.0000   613626    1.01%
    178   155      399.2308   453      396.0000      400.0000   629378    1.01%
Elapsed time = 348.80 sec. (371150.35 ticks, tree = 2.73 MB, solutions = 3)
    180   156      399.0000   271      396.0000      400.0000   641554    1.01%
    183   158      400.0000   205      396.0000      400.0000   656012    1.01%
    185   159      400.0000   409      396.0000      400.0000   665665    1.01%
    190   164      400.0000   276      396.0000      400.0000   667635    1.01%
    195   169      400.0000   461      396.0000      400.0000   671780    1.01%
    200   174      400.0000   270      396.0000      400.0000   675953    1.01%
    205   179      400.0000   244      396.0000      400.0000   680746    1.01%
    211   185      400.0000   372      396.0000      400.0000   684106    1.01%
    216   190      400.0000   227      396.0000      400.0000   686123    1.01%
    220   193      400.0000   215      396.0000      400.0000   690533    1.01%
Elapsed time = 387.76 sec. (415035.63 ticks, tree = 3.52 MB, solutions = 3)
    225   198      400.0000   307      396.0000      400.0000   694293    1.01%
    231   204      400.0000   304      396.0000      400.0000   697349    1.01%
    237   209      400.0000   230      396.0000      400.0000   700348    1.01%
    243   215      400.0000   230      396.0000      400.0000   702021    1.01%
    250   221      399.0000   260      396.0000      400.0000   704783    1.01%
    258   229      400.0000   206      396.0000      400.0000   705990    1.01%
    266   236      400.0000   209      396.0000      400.0000   708308    1.01%
    274   242      400.0000   196      396.0000      400.0000   711455    1.01%
    281   247      400.0000   192      396.0000      400.0000   714221    1.01%
    289   253      399.0000   263      396.0000      400.0000   718003    1.01%
Elapsed time = 420.94 sec. (455495.38 ticks, tree = 4.92 MB, solutions = 3)
    297   258      400.0000   235      396.0000      400.0000   721448    1.01%
    305   265      400.0000   190      396.0000      400.0000   724057    1.01%
    313   273      400.0000   179      396.0000      400.0000   726603    1.01%
    323   280      400.0000   118      396.0000      400.0000   728829    1.01%
    332   288      399.6875   272      396.0000      400.0000   731322    1.01%
    342   296      400.0000   111      396.0000      400.0000   733498    1.01%
    353   299      398.0000   235      396.0000      400.0000   736534    1.01%
    363   304      397.0000   208      396.0000      400.0000   737815    1.01%
    375   315      397.0000   101      396.0000      400.0000   739221    1.01%
    387   325      397.0000    61      396.0000      400.0000   740200    1.01%
Elapsed time = 453.41 sec. (496251.31 ticks, tree = 6.59 MB, solutions = 3)
    399   337      397.0000    56      396.0000      400.0000   741902    1.01%
    414   340      397.0000    74      396.0000      400.0000   742673    1.01%
    428   350      397.0000    81      396.0000      400.0000   743423    1.01%
    442   360      397.0000    26      396.0000      400.0000   744325    1.01%
    453   363      400.0000    94      396.0000      400.0000   747093    1.01%
    454   363      399.2308   370      396.0000      400.0000   758437    1.01%
    456   364      399.0784   457      396.0000      400.0000   769425    1.01%
    458   365      399.0769   507      396.0000      400.0000   778245    1.01%
    461   367      399.0769   476      396.0000      400.0000   790996    1.01%
    465   370      399.0769   522      396.0000      400.0000   804055    1.01%
Elapsed time = 493.86 sec. (544353.55 ticks, tree = 7.65 MB, solutions = 3)
    469   373      399.2308   497      396.0000      400.0000   813192    1.01%
    471   374      399.2308   447      396.0000      400.0000   822968    1.01%
    473   375      399.0769   480      396.0000      400.0000   832094    1.01%
    475   377      400.0000   162      396.0000      400.0000   843118    1.01%
    476   377      399.0385   531      396.0000      400.0000   853857    1.01%
    478   378      400.0000   157      396.0000      400.0000   867800    1.01%
    480   379      400.0000   546      396.0000      400.0000   887440    1.01%
    484   383      400.0000   396      396.0000      400.0000   894407    1.01%
    488   387      400.0000   273      396.0000      400.0000   902406    1.01%
    493   390      400.0000   384      396.0000      400.0000   909562    1.01%
Elapsed time = 534.25 sec. (589699.39 ticks, tree = 8.09 MB, solutions = 3)
    497   392    infeasible            396.0000      400.0000   925289    1.01%
    499   392    infeasible            396.0000      400.0000   938398    1.01%
Starting limited solution polishing.
    503   396      400.0000   108      396.0000      400.0000   951333    1.01%
    507   398    infeasible            396.0000      400.0000   967604    1.01%
    509   398    infeasible            396.0000      400.0000   982948    1.01%
    512   399      400.0000    99      396.0000      400.0000   998987    1.01%
    513   398    infeasible            396.0000      400.0000  1014444    1.01%
    515   398    infeasible            396.0000      400.0000  1032386    1.01%
    518   401      400.0000   434      396.0000      400.0000  1041813    1.01%
    524   407      400.0000   471      396.0000      400.0000  1044083    1.01%
Elapsed time = 584.14 sec. (643481.60 ticks, tree = 8.35 MB, solutions = 3)
    531   412      400.0000   332      396.0000      400.0000  1046186    1.01%
    538   419      400.0000   302      396.0000      400.0000  1047802    1.01%
    547   426      400.0000   184      396.0000      400.0000  1048658    1.01%
    557   428      400.0000   189      396.0000      400.0000  1050364    1.01%

Clique cuts applied:  6
Zero-half cuts applied:  8

Root node processing (before b&c):
  Real time             =   72.02 sec. (83077.66 ticks)
Sequential b&c:
  Real time             =  527.98 sec. (579203.43 ticks)
                          ------------
Total (root+branch&cut) =  600.00 sec. (662281.09 ticks)
Primal:	396
Dual:	400
Status:	Feasible
Time:	600.08
Sequence:
	22
	5
	16
	7
	12
	9
	8
	12
	11
	12
	5
	23
	1
	21
	9
	12
	5
	24
	1
	20
	9
	12
	7
	23
	1
	20
	10
	14
	5
	18
	5
	20
	1
	23
	7
	12
	9
	6
	14
	9
	20
	1
	23
	6
	12
	11
	20
	1
	23
	5
	12
	11
	21
	0
	23
	5
	14
	9
	21
	0
	23
	7
	12
	11
	20
	0
	21
	9
	14
	5
	23
	0
	21
	9
	12
	7
	23
	0
	21
	5
	16
	5
	22
	3
	20
	5
	16
	5
	21
	3
	20
	5
	16
	7
	20
	2
	21
	5
	18
	5
	13
	11
	12
	7
	12
	9
	21
	0
	21
	9
	12
	7
	23
	1
	20
	5
	19
	5
	20
	1
	23
	7
	13
	9
	12
	7
	23
	1
	20
	5
	13
	9
	21
	1
	23
	5
	13
	9
	21
	1
	23
	6
	12
	9
	21
	1
	23
	5
	12
	11
	21
	0
	20
	5
	18
	7
	6
	16
	5
	21
	3
	20
	0
	23
	1
	21
	5
	16
	5
	6
	18
	5
	20
	3
	20
	8
	12
	9
	20
	1
	23
	7
	12
	10
	14
	5
	18
	5
	12
	9
	14
	7
	16
	6
	5
	18
	7
	20
	2
	20
	7
	18
	5
	20
	0
	21
	11
	12
	5
	20
	2
	21
	5
	18
	5
	13
	11
	12
	7
	20
	2
	20
	7
	16
	7
	13
	9
	7
	12
	9
	13
	7
	23
	1
	20
	9
	15
	5
	23
	1
	20
	9
	14
	5
	23
	0
	21
	9
	14
	5
	23
	1
	20
	11
	12
	5
	15
	9
	20
	1
	23
	7
	13
	9
	20
	1
	23
	0
	21
	9
	12
	5
	19
	5
	12
	7
	23
	1
	20
	5
	18
	6
	5
	18
	5
	20
	3
	20
	7
	16
	5
	20
	1
	21
	5
	16
	6
	21
	1
	20
	9
	12
	7
	16
	6
	7
	16
	7
	12
	9
	13
	7
	20
	1
	23
	6
	14
	9
	20
	1
	20
	11
	13
	5
	20
	3
	21
	6
	12
	9
	14
	7
	16
	5
	20
	3
	21
	5
	16
	5
	21
	3
	20
	5
	16
	8
	5
	16
	7
	20
	4
	20
	5
	12
	7
	16
	5
	12
	11
	21
	0
	23
	5
	12
	11
	12
	5
	17
	7
	5
	16
	7
	13
	9
	14
	5
	9
	14
	5
	20
	1
	20
	11
	12
	6
	16
	5
	21
	1
	20
	5
	16
	7
	12
	10
	21
